
-4.0
-4.0
-4.0
-4.0
-4.0
-4.0
-4.0
-4.0
-4.0
-4.0
-4.0
-4.0
-4.0
-4.0
-4.0
-4.0
-4.0
-4.0
-4.0
-4.0
-4.6
-4.55
-4.4
-4.35
-4.35
-4.35
-4.3
-4.2
-4.2
-4.2
-4.2
-4.2
-4.2
-4.2
-4.2
-4.2
-4.1
-4.05
-4.05
-4.05
-4.5
-4.5
-4.45
-4.35
-4.35
-4.35
-4.3
-4.3
-4.3
-4.3
-4.3
-4.3
-4.3
-4.3
-4.3
-4.3
-4.3
-4.3
-4.3
-4.3